4 5
53 46 86 83 
0 21 11 39 29 58 48 76 66 34 13 2 28 8 80 48 8 18 91 50 80 2
1 63 53 40 30 16 6 93 83 19 55 14 19 48 9 1 78 24 70 20 27 3
2 13 3 56 46 90 80 25 15 55 80 90 25 82 52 14 32 55 79 44 61 4
3 36 26 52 42 61 51 77 67 27 89 24 80 40 73 55 11 43 30 75 100 3
4 55 45 26 16 96 86 67 57 61 79 62 93 22 53 78 23 73 54 68 73 3
